c   #vars: 115   #clauses: 530   #literals: 1448
c 
p cnf 115 530
-1 -2 0
-7 11 39 40 0
55 56 57 58 0
-3 -4 0
6 20 21 -53 0
11 -39 75 76 0
-7 -8 0
-9 -10 0
-12 -13 0
-14 -15 0
-16 -17 0
-18 -19 0
-20 -21 0
-22 -23 0
-24 -25 0
43 44 47 48 0
99 100 103 104 0
-26 -27 0
-29 -30 0
-31 -32 0
-33 -34 0
-35 -36 0
-37 -38 0
73 74 -90 115 0
-39 -40 0
-41 -42 0
-43 -44 0
-45 -46 0
-47 -48 0
-49 -50 0
-51 -52 0
-53 -54 0
-55 -56 0
31 32 33 34 0
-85 90 91 115 0
39 40 51 52 0
12 13 39 40 0
-57 -58 0
-59 -60 0
-61 -62 0
-63 -64 0
-65 -66 0
-67 -68 0
-69 -70 0
-71 -72 0
-73 -74 0
-75 -76 0
3 4 82 -90 0
-78 -79 0
-80 -81 0
5 14 15 -24 0
69 70 85 -115 0
-83 -84 0
35 36 -85 96 0
-86 -87 0
-88 -89 0
-90 -91 0
-92 -93 0
-94 -95 0
-92 99 100 105 0
16 17 57 58 0
-97 -98 0
3 4 12 13 0
-99 -100 0
-101 -102 0
33 34 83 84 0
-103 -104 0
106 107 -110 114 0
-106 -107 0
-108 -109 0
-110 -111 0
14 15 97 98 0
-112 -113 0
-1 -45 0
-2 -46 0
94 95 99 100 0
-1 -63 0
-2 -64 0
45 46 83 84 0
-1 -86 0
-2 -87 0
41 42 47 48 0
-1 -108 0
-2 -109 0
41 42 86 87 0
-3 -12 0
-4 -13 0
9 10 16 17 0
-3 -33 0
-4 -34 0
9 10 75 76 0
-3 -45 0
-4 -46 0
5 14 15 -112 0
-3 -53 0
-4 -54 0
18 19 83 84 0
-3 -73 0
-4 -74 0
88 89 101 102 0
69 70 85 -96 0
-4 -82 0
49 50 69 70 0
6 20 21 -31 0
-5 -15 0
24 25 92 93 0
6 31 32 -53 0
-5 -25 0
33 34 -57 77 0
6 -20 31 32 0
-5 -113 0
37 38 69 70 0
-7 11 75 76 0
-6 -21 0
3 4 45 46 0
7 8 11 -75 0
-6 -32 0
43 44 92 93 0
7 8 11 -39 0
-6 -54 0
28 -33 83 84 0
-8 -11 0
-29 110 111 114 0
-7 -33 0
-8 -34 0
24 25 103 104 0
-7 -55 0
-8 -56 0
53 54 108 109 0
-7 -90 0
-8 -91 0
16 17 22 23 0
-9 -16 0
-10 -17 0
18 19 41 42 0
-9 -35 0
-10 -36 0
-9 -49 0
-10 -50 0
86 87 97 98 0
-9 -67 0
-10 -68 0
-9 -75 0
-10 -76 0
5 -24 112 113 0
29 30 82 -90 0
7 8 90 91 0
-11 -40 0
20 21 101 102 0
-11 -76 0
18 19 67 68 0
-12 -39 0
-13 -40 0
53 54 61 62 0
-12 -65 0
-13 -66 0
-12 -71 0
-13 -72 0
65 66 67 68 0
-12 -106 0
-13 -107 0
14 15 35 36 0
-14 -35 0
-15 -36 0
-106 110 111 114 0
-14 -43 0
-15 -44 0
9 10 35 36 0
-14 -53 0
-15 -54 0
26 27 35 36 0
-14 -67 0
-15 -68 0
78 79 106 107 0
-14 -97 0
-15 -98 0
35 36 59 60 0
-14 -103 0
-15 -104 0
-16 -22 0
-17 -23 0
-16 -31 0
-17 -32 0
24 25 33 34 0
-16 -57 0
-17 -58 0
1 2 86 87 0
-16 -80 0
-17 -81 0
55 56 94 95 0
-18 -41 0
-19 -42 0
20 21 78 79 0
-18 -57 0
-19 -58 0
20 21 63 64 0
-18 -67 0
-19 -68 0
20 21 51 52 0
-18 -73 0
-19 -74 0
11 39 40 -75 0
-18 -83 0
-19 -84 0
-18 -101 0
-19 -102 0
47 48 108 109 0
28 33 34 -37 0
28 38 -83 0
35 36 86 87 0
-29 82 90 91 0
28 -33 37 38 0
-20 -49 0
-21 -50 0
6 -31 53 54 0
-20 -51 0
-21 -52 0
12 13 65 66 0
-20 -63 0
-21 -64 0
16 17 80 81 0
-20 -78 0
-21 -79 0
-20 -101 0
-21 -102 0
-22 -41 0
-23 -42 0
29 30 69 70 0
-22 -103 0
-23 -104 0
29 30 112 113 0
-29 106 107 114 0
-23 -105 0
-24 -33 0
-25 -34 0
29 30 -57 77 0
-24 -92 0
-25 -93 0
28 -37 84 0
-24 -103 0
-25 -104 0
67 68 69 70 0
-35 -70 85 96 0
-61 -70 85 96 0
-26 -31 0
-27 -32 0
-70 85 -90 115 0
-26 -35 0
-27 -36 0
73 74 -85 115 0
-26 -99 0
-27 -100 0
-26 -106 0
-27 -107 0
-29 33 34 77 0
-28 -34 0
37 38 97 98 0
-28 -38 0
57 58 101 102 0
-28 -84 0
26 27 31 32 0
-29 -69 0
-30 -70 0
5 24 25 -112 0
3 4 -29 82 0
-30 -77 0
65 66 69 70 0
-22 92 93 105 0
-30 -82 0
16 17 31 32 0
-29 -112 0
-30 -113 0
92 93 108 109 0
-30 -114 0
22 23 41 42 0
-31 -33 0
-32 -34 0
41 42 59 60 0
-31 -101 0
-32 -102 0
61 62 106 107 0
22 23 -47 -48 0
-34 -77 0
83 84 86 87 0
-33 -83 0
-34 -84 0
97 98 108 109 0
-33 -106 0
-34 -107 0
-35 -59 0
-36 -60 0
49 50 112 113 0
-35 -69 0
-36 -70 0
20 21 49 50 0
-35 -86 0
-36 -87 0
71 72 92 93 0
-22 99 100 105 0
-36 -96 0
-37 -39 0
-38 -40 0
28 33 34 -83 0
37 38 39 40 0
-37 -69 0
-38 -70 0
39 40 78 79 0
-37 -83 0
-38 -84 0
39 40 55 56 0
-37 -97 0
-38 -98 0
5 -14 24 25 0
-22 -23 47 48 0
71 72 99 100 0
-73 85 -96 115 0
-39 -51 0
-40 -52 0
1 2 63 64 0
-39 -55 0
-40 -56 0
59 60 80 81 0
-39 -78 0
-40 -79 0
7 8 55 56 0
-41 -47 0
-42 -48 0
22 23 103 104 0
-41 -59 0
-42 -60 0
3 4 33 34 0
-41 -86 0
-42 -87 0
3 4 53 54 0
-43 -47 0
-44 -48 0
1 2 45 46 0
-43 -92 0
-44 -93 0
7 8 33 34 0
-43 -94 0
-44 -95 0
18 19 73 74 0
-45 -47 0
-46 -48 0
3 4 73 74 0
-45 -57 0
-46 -58 0
73 74 80 81 0
-45 -83 0
-46 -84 0
65 66 73 74 0
-45 -97 0
-46 -98 0
51 52 75 76 0
-47 -61 0
-48 -62 0
43 44 94 95 0
-47 -88 0
-48 -89 0
14 15 53 54 0
-47 -101 0
-48 -102 0
71 72 110 111 0
-47 -108 0
-48 -109 0
14 15 67 68 0
-3 82 90 91 0
29 30 -33 77 0
57 58 108 109 0
-49 -67 0
-50 -68 0
45 46 57 58 0
-49 -69 0
-50 -70 0
18 19 57 58 0
-49 -86 0
-50 -87 0
14 15 43 44 0
-49 -112 0
-50 -113 0
9 10 67 68 0
-51 -75 0
-52 -76 0
-51 -90 0
-52 -91 0
-53 -61 0
-54 -62 0
45 46 97 98 0
-53 -73 0
-54 -74 0
33 34 106 107 0
-53 -88 0
-54 -89 0
75 76 110 111 0
-53 -108 0
-54 -109 0
-55 -57 0
-56 -58 0
-55 -94 0
-56 -95 0
-55 -103 0
-56 -104 0
14 15 103 104 0
31 32 101 102 0
-58 -77 0
49 50 67 68 0
-57 -101 0
-58 -102 0
59 60 110 111 0
-57 -108 0
-58 -109 0
35 36 69 70 0
-59 -80 0
-60 -81 0
53 54 73 74 0
-59 -110 0
-60 -111 0
103 104 112 113 0
22 23 -99 105 0
-62 -96 0
85 -90 -96 115 0
-61 -106 0
-62 -107 0
63 64 101 102 0
-29 57 58 77 0
-63 -67 0
-64 -68 0
71 72 97 98 0
-63 -101 0
-64 -102 0
12 13 71 72 0
-65 -67 0
-66 -68 0
-65 -69 0
-66 -70 0
47 48 88 89 0
-65 -73 0
-66 -74 0
26 27 99 100 0
5 -14 112 113 0
-3 29 30 82 0
83 84 110 111 0
-67 -69 0
-68 -70 0
-69 -78 0
-70 -79 0
-61 85 96 -115 0
-69 -85 0
35 36 -61 96 0
78 79 88 89 0
-71 -92 0
-72 -93 0
-73 90 91 115 0
-71 -97 0
-72 -98 0
18 19 101 102 0
-71 -99 0
-72 -100 0
63 64 67 68 0
-71 -110 0
-72 -111 0
-73 -80 0
-74 -81 0
-74 -115 0
94 95 103 104 0
-75 -110 0
-76 -111 0
69 70 78 79 0
-78 -88 0
-79 -89 0
-35 85 96 -115 0
-78 -106 0
-79 -107 0
51 52 90 91 0
-80 -112 0
-81 -113 0
45 46 47 48 0
-33 57 58 77 0
47 48 101 102 0
92 93 -99 105 0
-82 -91 0
49 50 86 87 0
-83 -86 0
-84 -87 0
110 111 112 113 0
-83 -110 0
-84 -111 0
22 23 -92 105 0
61 62 -85 96 0
9 10 49 50 0
-35 61 62 96 0
86 87 92 93 0
-86 -92 0
-87 -93 0
26 27 106 107 0
-86 -97 0
-87 -98 0
55 56 103 104 0
-88 -101 0
-89 -102 0
47 48 61 62 0
-91 -115 0
1 2 108 109 0
29 30 -110 114 0
-93 -105 0
-92 -108 0
-93 -109 0
-94 -99 0
-95 -100 0
53 54 88 89 0
-94 -103 0
-95 -104 0
12 13 106 107 0
-97 -108 0
-98 -109 0
-70 -73 85 115 0
-99 -103 0
-100 -104 0
29 30 -106 114 0
-100 -105 0
6 -20 53 54 0
-103 -112 0
-104 -113 0
37 38 83 84 0
-107 -114 0
80 81 112 113 0
-110 -112 0
-111 -113 0
-111 -114 0
